120
 Atoms. Timestep: 0
Pt 0 3.2572 0.999887
Pt 2.82067 8.14305 0.999887
Pt 0 6.5145 3.30451
Pt 2.82067 1.62865 3.30451
Pt 11.0673 0.0779335 5.728
Pt 2.4805 5.14357 5.56982
Pt 1.41034 5.70013 0.999887
Pt 4.23101 0.814276 0.999887
Pt 1.41034 8.95742 3.30451
Pt 4.23101 4.07157 3.30451
Pt 1.29294 2.57565 5.61197
Pt 3.95551 7.47018 5.65421
Pt 0 8.14305 0.999887
Pt 2.82067 3.2572 0.999887
Pt 0 1.62865 3.30451
Pt 2.82067 6.5145 3.30451
Pt 11.0479 4.98323 5.64984
Pt 2.57207 0.115302 5.52087
Pt 1.41034 0.814276 0.999887
Pt 4.23101 5.70013 0.999887
Pt 1.41034 4.07157 3.30451
Pt 4.23101 8.95742 3.30451
Pt 1.12596 7.57993 5.90421
Pt 4.06427 2.54919 5.57
Pt 5.64135 3.2572 0.999887
Pt 8.46202 8.14305 0.999887
Pt 5.64135 6.5145 3.30451
Pt 8.46202 1.62865 3.30451
Pt 5.58069 0.247796 5.55323
Pt 8.1834 5.11932 5.57057
Pt 7.05169 5.70013 0.999887
Pt 9.87236 0.814276 0.999887
Pt 7.05169 8.95742 3.30451
Pt 9.87236 4.07157 3.30451
Pt 6.97993 2.70622 5.6108
Pt 9.65425 7.53374 5.56046
Pt 5.64135 8.14305 0.999887
Pt 8.46202 3.2572 0.999887
Pt 5.64135 1.62865 3.30451
Pt 8.46202 6.5145 3.30451
Pt 5.50198 5.009 5.59878
Pt 8.34806 0.254088 5.60843
Pt 7.05169 0.814276 0.999887
Pt 9.87236 5.70013 0.999887
Pt 7.05169 4.07157 3.30451
Pt 9.87236 8.95742 3.30451
Pt 6.81955 7.53388 5.70911
Pt 9.85566 2.62422 5.71906
O 5.22325 7.73881 12.4892
O 4.30293 5.48527 10.475
O 4.07381 2.58979 7.66242
O 8.02014 4.30692 11.6233
O 2.30002 4.05804 11.0249
O 1.30789 1.26126 11.6624
O 6.58689 4.81653 9.38016
O 7.692 1.6088 11.5516
O 10.0161 0.939973 12.6867
O 6.88536 2.5122 7.82688
O 7.84682 6.71442 13.1529
O 0.678005 6.95234 11.4332
O 8.98423 1.40141 9.16156
O 6.12249 9.44976 10.6277
O 9.73273 8.21586 11.3703
O 0.387816 1.16652 9.11054
O 2.70631 8.85436 12.7232
O 0.000613791 6.98726 8.75505
O 4.44057 0.204946 8.57051
O 1.52849 3.6218 8.39071
O 8.87945 8.50352 8.71464
O 6.98038 7.20061 8.05623
O 10.4835 4.5631 9.70863
O 2.77326 7.32958 8.87405
H 4.41731 8.31769 12.6148
H 5.00049 6.95511 11.8924
H 3.73146 6.17372 10.0583
H 3.58939 4.8314 10.7224
H 4.20651 1.72356 8.17693
H 3.21469 3.04711 7.89026
H 7.53551 4.53832 10.8056
H 7.91495 5.06637 12.2954
H 2.23337 3.13546 11.4712
H 1.9826 3.83903 10.1048
H 1.87306 0.592086 12.0881
H 0.513732 1.371 12.2302
H 5.68825 4.84314 9.72497
H 6.57593 5.65149 8.86778
H 8.41142 1.30405 12.1171
H 7.58132 2.54556 11.7201
H 10.0824 0.711251 13.6162
H 10.0534 0.0479595 12.1806
H 7.74838 2.11078 8.16422
H 6.69152 3.42839 8.30602
H 8.11973 6.66804 14.1145
H 6.95978 7.1565 13.1737
H 0.575765 7.05273 10.4846
H 0.953829 5.98573 11.6282
H 9.9258 1.49412 9.0312
H 8.64261 1.63035 10.0758
H 5.88525 8.76842 11.3224
H 6.64415 0.317362 11.0704
H 9.07975 7.82737 11.9304
H 10.575 7.69656 11.4093
H 0.613688 0.37257 8.58884
H 0.748216 1.0706 10.0447
H 2.31233 7.97258 12.4357
H 2.57201 8.8502 13.7017
H 10.7484 6.16105 8.95448
H 10.6269 7.49033 8.27103
H 3.79432 9.29725 8.66416
H 5.0287 0.16637 9.37636
H 1.15646 4.17298 7.69979
H 0.934922 2.75562 8.47421
H 8.93113 8.36424 9.72478
H 8.68478 9.46159 8.60312
H 6.13084 7.70992 8.11878
H 7.73483 7.85409 8.35858
H 9.61362 4.15378 9.47034
H 10.3613 4.67679 10.7055
H 3.17993 6.94452 8.04304
H 1.76643 7.19697 8.72782
120
 Atoms. Timestep: 1000
Pt 0 3.2572 0.999887
Pt 2.82067 8.14305 0.999887
Pt 0 6.5145 3.30451
Pt 2.82067 1.62865 3.30451
Pt 0.122682 0.0662671 5.6619
Pt 2.65911 5.01946 5.53407
Pt 1.41034 5.70013 0.999887
Pt 4.23101 0.814276 0.999887
Pt 1.41034 8.95742 3.30451
Pt 4.23101 4.07157 3.30451
Pt 1.35678 2.50403 5.65542
Pt 4.39982 7.32696 5.65117
Pt 0 8.14305 0.999887
Pt 2.82067 3.2572 0.999887
Pt 0 1.62865 3.30451
Pt 2.82067 6.5145 3.30451
Pt 0.0484498 4.84807 5.59664
Pt 2.89688 9.68429 5.65273
Pt 1.41034 0.814276 0.999887
Pt 4.23101 5.70013 0.999887
Pt 1.41034 4.07157 3.30451
Pt 4.23101 8.95742 3.30451
Pt 1.29614 7.47236 5.63563
Pt 4.07225 2.56495 5.70878
Pt 5.64135 3.2572 0.999887
Pt 8.46202 8.14305 0.999887
Pt 5.64135 6.5145 3.30451
Pt 8.46202 1.62865 3.30451
Pt 5.69022 9.71646 5.51221
Pt 8.44586 4.93108 5.66556
Pt 7.05169 5.70013 0.999887
Pt 9.87236 0.814276 0.999887
Pt 7.05169 8.95742 3.30451
Pt 9.87236 4.07157 3.30451
Pt 7.01554 2.38779 5.63875
Pt 9.78754 7.30472 5.57138
Pt 5.64135 8.14305 0.999887
Pt 8.46202 3.2572 0.999887
Pt 5.64135 1.62865 3.30451
Pt 8.46202 6.5145 3.30451
Pt 5.57943 4.97636 5.6033
Pt 8.62015 9.68208 5.54973
Pt 7.05169 0.814276 0.999887
Pt 9.87236 5.70013 0.999887
Pt 7.05169 4.07157 3.30451
Pt 9.87236 8.95742 3.30451
Pt 7.11253 7.3866 5.75124
Pt 9.90591 2.40964 5.67396
O 4.50844 7.43148 11.9076
O 3.85273 5.74026 9.59758
O 3.8562 2.34249 7.84016
O 7.92512 4.91102 11.0233
O 1.97396 3.76852 12.8809
O 1.33103 0.964448 12.1355
O 6.12889 4.97393 8.66983
O 8.50152 2.34431 11.3823
O 10.1791 0.651876 13.0177
O 6.91482 2.52764 7.93986
O 6.79626 6.495 13.0648
O 0.423335 6.24021 12.0437
O 9.43 1.38169 8.93358
O 6.45309 0.293029 11.2121
O 9.16165 7.99952 12.4773
O 0.854602 1.18198 9.3072
O 2.03507 8.1539 12.8034
O 11.2629 6.9095 9.46116
O 4.17013 9.7306 9.17147
O 1.78036 3.74375 8.86212
O 9.29076 8.56718 9.77179
O 6.66772 7.77996 8.83342
O 10.2405 4.53262 8.69214
O 2.4203 7.87952 8.77654
H 3.62505 7.64523 12.333
H 4.35998 6.76038 11.1835
H 3.24575 6.4685 9.18855
H 3.13533 5.03091 9.77017
H 3.98836 1.33434 8.14986
H 3.10546 2.88064 8.2771
H 7.20321 5.08662 10.3785
H 7.66833 5.42114 11.8485
H 2.88705 4.00205 12.6399
H 1.74171 2.90661 12.4787
H 1.6658 -0.00421855 12.2605
H 0.356208 0.866023 12.2922
H 5.1907 5.1629 9.04083
H 6.30289 5.81617 8.31533
H 8.98528 2.0468 12.2111
H 8.34657 3.34583 11.3375
H 10.437 0.723897 13.9372
H 9.77389 9.53329 12.9256
H 7.7861 2.13465 8.22333
H 6.92672 3.51652 8.19996
H 6.61706 6.22801 13.9847
H 6.02674 6.93935 12.6249
H 0.0734275 6.40554 11.1186
H 0.954099 5.39384 12.1254
H 10.3982 1.66785 8.931
H 9.01232 1.63794 9.76644
H 6.90364 9.2469 10.83
H 7.01058 1.09662 11.1821
H 8.29484 7.66093 12.8055
H 9.75469 7.21258 12.6995
H 1.23226 0.679134 8.62161
H 0.976631 0.823176 10.3082
H 1.47945 7.39855 12.4358
H 2.21197 7.97081 13.7529
H 10.8444 6.18019 8.95171
H 10.5444 7.67378 9.49542
H 3.52482 9.03499 9.2327
H 4.81996 9.74317 9.91319
H 1.23897 4.1922 8.19063
H 1.33912 2.87544 9.16968
H 9.09258 8.51143 10.7605
H 9.41743 9.40086 9.33128
H 6.06056 8.36271 8.29578
H 7.55625 8.19021 8.91467
H 9.79956 4.34123 7.84697
H 9.61036 4.41711 9.44733
H 2.34588 7.953 7.74038
H 1.4689 7.60719 8.99639
